
<<< setup


<<< generate

CPXPARAM_Simplex_Tolerances_Optimality           0.001
CPXPARAM_Simplex_Tolerances_Feasibility          0.001
CPXPARAM_TimeLimit                               3600
CPXPARAM_Threads                                 8
CPXPARAM_MIP_Tolerances_AbsMIPGap                0.001
CPXPARAM_MIP_Tolerances_MIPGap                   0.001
CPXPARAM_MIP_Tolerances_Integrality              0.001
CPXPARAM_MIP_Display                             4
CPXPARAM_MIP_PolishAfter_Solutions               1
Tried aggregator 1 time.
MIQCP Presolve eliminated 2 rows and 2 columns.
Reduced MIQCP has 69 rows, 195 columns, and 1225 nonzeros.
Reduced MIQCP has 0 binaries, 16 generals, 0 SOSs, and 0 indicators.
Reduced MIQCP has 34 quadratic constraints.
Presolve time = 0.00 sec. (0.44 ticks)
MIP emphasis: balance optimality and feasibility.
MIP search method: dynamic search.
Parallel mode: deterministic, using up to 8 threads.
Initializing dual steep norms . . .

Iteration log . . .
Iteration:     1   Scaled dual infeas =             0.000000
Iteration:     2   Dual objective     =           371.977542
Root relaxation solution time = 0.00 sec. (0.10 ticks)

        Nodes                                         Cuts/
   Node  Left     Objective  IInf  Best Integer    Best Bound    ItCnt     Gap

      0     0      371.9775     0                                    2         
      0     0      371.9775     0                     Cone: 2        3         
      0     0      371.9775     0                     Cone: 4        4         
      0     0      371.9775     0                     Cone: 6        5         
      0     0      371.9775     1                     Cone: 8        6         
      0     0      371.9775     1                    Cone: 10        7         
      0     0      371.9775     1                    Cone: 12        8         
      0     0      377.1386     1                    Cone: 77       76         
      0     0      377.1390    16                   Cone: 138      101         
      0     0      377.1391    16                   Cone: 199      121         
      0     0      377.1392    16                   Cone: 258      129         
      0     0      377.1392    15                   Cone: 319      133         
      0     0      377.1393    16                   Cone: 378      137         
      0     0      377.1393    16                   Cone: 437      141         
      0     0      377.1393    16                   Cone: 496      145         
      0     0      377.1393    16                   Cone: 555      150         
      0     0      377.1393    16                   Cone: 614      156         
      0     0      377.1393    16                   Cone: 673      162         
      0     0      377.1393    16                   Cone: 732      167         
      0     0      377.1393    16                   Cone: 791      171         
      0     0      377.1393    16                   Cone: 850      175         
      0     0      377.1393    16                   Cone: 909      178         
      0     0      377.1393    16                   Cone: 968      180         
      0     0      377.1393    16                    377.1393      193         
*     0+    0                          379.0618      377.1393             0.51%
Found incumbent of value 379.061826 after 0.06 sec. (23.67 ticks)

Starting condition for polishing reached (PolishAfterIntSol).
Starting solution polishing.

      0     2      377.1393    16      379.0618      377.1393      206    0.51%
Elapsed time = 0.06 sec. (29.18 ticks, tree = 0.01 MB, solutions = 1)
*     1+    1                          378.6954      377.1393             0.41%
                                                    Cone: 167                  
Found incumbent of value 378.695393 after 0.34 sec. (44.48 ticks)
*     1+    1                          378.6761      377.1393             0.41%
Found incumbent of value 378.676051 after 1.08 sec. (574.88 ticks)
      1     3      377.3458    15      378.6761      377.1393      219    0.41%
      2     4      377.5536    14      378.6761      377.1393      233    0.41%
      3     4      377.5464    14      378.6761      377.1393      231    0.41%
      4     5      377.9424    13      378.6761      377.1393      246    0.41%
      5     6      377.6555    13      378.6761      377.1393      258    0.41%
      7     5      378.1872    13      378.6761      377.1393      246    0.41%
      8     9      378.1716    11      378.6761      377.1393      298    0.41%
      9     8      377.7975    12      378.6761      377.1393      285    0.41%
     11     6      377.6270    13      378.6761      377.1393      259    0.41%
     12     3      377.4082    15      378.6761      377.1393      219    0.41%
Elapsed time = 47.55 sec. (49364.16 ticks, tree = 0.01 MB, solutions = 3)
     16    11      378.2663    10      378.6761      377.1393      324    0.41%
     17    13      378.1799    11      378.6761      377.1393      351    0.41%
     18    12      377.9533    11      378.6761      377.1393      338    0.41%
     19    16      378.1648    10      378.6761      377.4082      396    0.33%
     21    15      377.4820    14      378.6761      377.4082      378    0.33%
     22    19      378.3611     9      378.6761      377.4082      436    0.33%
     23    21      378.3097    10      378.6761      377.4082      461    0.33%
     24    18      378.5859    11      378.6761      377.4082      422    0.33%
     25    14      378.0016    12      378.6761      377.4082      365    0.33%
     26    20      378.2901    10      378.6761      377.4082      448    0.33%
Elapsed time = 82.69 sec. (87491.69 ticks, tree = 0.01 MB, solutions = 3)
     27    24      378.0545    13      378.6761      377.4082      504    0.33%
     28    23      378.2471    10      378.6761      377.4082      492    0.33%
     30    25      378.4678     8      378.6761      377.4082      519    0.33%
     31    24        cutoff            378.6761      377.4082      531    0.33%
     32    25        cutoff            378.6761      377.4082      544    0.33%
     33    28      378.1239    11      378.6761      377.4082      557    0.33%
     35    29      378.4030     9      378.6761      377.4082      570    0.33%
     36    31      378.4185     9      378.6761      377.4082      598    0.33%
     38    33      378.6061     7      378.6761      377.4082      626    0.33%
     39    29        cutoff            378.6761      377.4082      651    0.33%
Elapsed time = 142.28 sec. (160316.23 ticks, tree = 0.01 MB, solutions = 3)
     41    32      378.2853    10      378.6761      377.4082      665    0.33%
     42    33      378.5752    12      378.6761      377.4082      677    0.33%
     43    34      378.5354     8      378.6761      377.4082      691    0.33%
     44    35      378.5663     8      378.6761      377.4082      706    0.33%
     46    35        cutoff            378.6761      377.4082      732    0.33%
     47    36      378.5178    10      378.6761      377.4082      747    0.33%
     48    35      377.9692    11      378.6761      377.4082      758    0.33%
     49    36      378.4742     9      378.6761      377.4082      772    0.33%
     50    37      378.6748    11      378.6761      377.4082      784    0.33%
     51    38      378.6525     7      378.6761      377.4082      800    0.33%
Elapsed time = 200.84 sec. (213796.60 ticks, tree = 0.01 MB, solutions = 3)
     52    37        cutoff            378.6761      377.4082      815    0.33%
     53    40      378.5276     6      378.6761      377.4082      831    0.33%
     55    40      378.6073     9      378.6761      377.4082      864    0.33%
     56    42      378.6381     8      378.6761      377.4082      890    0.33%
     57    41        cutoff            378.6761      377.4082      904    0.33%
     60    44      378.5683     5      378.6761      377.4082      944    0.33%
     62    43      377.8786    13      378.6761      377.4082      958    0.33%
     63    42        cutoff            378.6761      377.4082      973    0.33%
     64    43        cutoff            378.6761      377.4082      987    0.33%
     66    42        cutoff            378.6761      377.4082     1000    0.33%
Elapsed time = 262.94 sec. (295080.65 ticks, tree = 0.01 MB, solutions = 3)
     67    44      378.5421    10      378.6761      377.4082     1027    0.33%
     68    44      377.9798    11      378.6761      377.4082     1053    0.33%
     69    45      378.6162     4      378.6761      377.4082     1038    0.33%
     70    45      378.0011    12      378.6761      377.4082     1067    0.33%
     71    42        cutoff            378.6761      377.4082     1083    0.33%
     72    42      378.1265    11      378.6761      377.4082     1108    0.33%
     73    41      377.5027    14      378.6761      377.5027     1122    0.31%
     75    42      378.5449     9      378.6761      377.5027     1136    0.31%
     76    43      378.2100    10      378.6761      377.5027     1149    0.31%
     78    44      378.1240    11      378.6761      377.5027     1193    0.31%
Elapsed time = 321.89 sec. (359657.28 ticks, tree = 0.01 MB, solutions = 3)
     79    45      378.1634    11      378.6761      377.5027     1176    0.31%
     80    45      378.2519    10      378.6761      377.5027     1206    0.31%
     81    46      377.6232    13      378.6761      377.5027     1219    0.31%
     82    45      378.2367    12      378.6761      377.5027     1236    0.31%
     83    46      378.6145     8      378.6761      377.5027     1251    0.31%
     84    48      378.6393     2      378.6761      377.5027     1278    0.31%
     85    47      378.3038    10      378.6761      377.5027     1265    0.31%
     87    50      378.3622    10      378.6761      377.5027     1306    0.31%
     88    51      378.3890     9      378.6761      377.5027     1323    0.31%
     89    52      377.7688    12      378.6761      377.5027     1332    0.31%
Elapsed time = 373.69 sec. (419354.77 ticks, tree = 0.01 MB, solutions = 3)
     90    53      378.3122    11      378.6761      377.5027     1346    0.31%
     91    55      378.6727     1      378.6761      377.5027     1378    0.31%
*    92    60      integral     0      378.6761      377.5027     1480    0.31%
Found incumbent of value 378.676051 after 390.58 sec. (437588.02 ticks)
     92    52        cutoff            378.6761      377.5027     1363    0.31%
     93    56        cutoff            378.6761      377.5027     1416    0.31%
     96    59      378.5906     8      378.6761      377.5027     1435    0.31%
     97    61      378.4004    10      378.6761      377.5027     1460    0.31%
     98    60      377.9350    11      378.6761      377.5027     1446    0.31%
     99    60      378.6761     0      378.6761      377.5027     1480    0.31%
    100    62      378.4405     8      378.6761      377.5027     1537    0.31%
    102    59        cutoff            378.6761      377.5027     1495    0.31%
Elapsed time = 431.33 sec. (482683.82 ticks, tree = 0.01 MB, solutions = 3)
    103    59        cutoff            378.6761      377.5027     1523    0.31%
    104    61        cutoff            378.6761      377.5027     1556    0.31%
    105    64      378.6049     9      378.6761      377.5027     1567    0.31%
    107    62        cutoff            378.6761      377.5027     1600    0.31%
    108    65      378.5291     7      378.6761      377.5027     1612    0.31%
    109    60        cutoff            378.6761      377.5027     1655    0.31%
    110    63      378.3344    10      378.6761      377.5027     1637    0.31%
    111    64      377.9766    12      378.6761      377.5027     1623    0.31%
    112    59        cutoff            378.6761      377.5027     1672    0.31%
    113    60        cutoff            378.6761      377.5027     1683    0.31%
Elapsed time = 483.00 sec. (542232.65 ticks, tree = 0.01 MB, solutions = 3)
    114    63      378.4168     9      378.6761      377.5027     1696    0.31%
    115    63      378.6042     6      378.6761      377.5027     1728    0.31%
    116    62      377.9850    11      378.6761      377.5027     1712    0.31%
    117    60        cutoff            378.6761      377.5027     1744    0.31%
    118    63      378.4402     9      378.6761      377.5027     1758    0.31%
    119    64      378.1695    11      378.6761      377.5027     1770    0.31%
    120    61        cutoff            378.6761      377.5027     1792    0.31%
    121    60        cutoff            378.6761      377.5027     1802    0.31%
    122    63      378.6645     9      378.6761      377.5027     1814    0.31%
    123    64      378.6663     5      378.6761      377.5027     1830    0.31%
Elapsed time = 535.38 sec. (599228.83 ticks, tree = 0.01 MB, solutions = 3)
    126    66      378.4070    10      378.6761      377.5027     1883    0.31%
    128    65      378.1285    11      378.6761      377.5027     1901    0.31%
    129    64      377.7684    12      378.6761      377.5027     1914    0.31%
    130    65      378.5810     8      378.6761      377.5027     1928    0.31%
    131    64        cutoff            378.6761      377.5027     1941    0.31%
    132    68      378.2899    10      378.6761      377.5027     1970    0.31%
    134    67        cutoff            378.6761      377.5027     1983    0.31%
    135    68        cutoff            378.6761      377.5027     2000    0.31%
    136    71      378.2628    10      378.6761      377.5027     2012    0.31%
    138    71        cutoff            378.6761      377.5027     2040    0.31%
Elapsed time = 599.56 sec. (668409.36 ticks, tree = 0.02 MB, solutions = 3)
    139    70        cutoff            378.6761      377.5027     2054    0.31%
    140    71        cutoff            378.6761      377.5027     2068    0.31%
    142    71        cutoff            378.6761      377.5027     2100    0.31%
    143    70        cutoff            378.6761      377.5027     2113    0.31%
    144    73      378.4270     9      378.6761      377.5027     2126    0.31%
    147    72      378.0426    10      378.6761      377.5027     2168    0.31%
    148    68        cutoff            378.6761      377.5027     2197    0.31%
    150    69      378.0804    11      378.6761      377.5027     2214    0.31%
    151    68      378.2868    10      378.6761      377.5027     2228    0.31%
    153    67        cutoff            378.6761      377.5027     2241    0.31%
Elapsed time = 672.48 sec. (746570.70 ticks, tree = 0.01 MB, solutions = 3)
    155    70      378.1761     9      378.6761      377.6039     2285    0.28%
    156    68        cutoff            378.6761      377.6039     2312    0.28%
    158    71      378.1869    10      378.6761      377.6039     2324    0.28%
    159    69        cutoff            378.6761      377.6039     2351    0.28%
    162    70      378.5758     8      378.6761      377.6039     2362    0.28%
    163    72      378.6565     8      378.6761      377.6039     2395    0.28%
    164    69        cutoff            378.6761      377.6039     2407    0.28%
    166    73      378.3113     9      378.6761      377.6039     2431    0.28%
    167    73      377.9598    11      378.6761      377.6039     2461    0.28%
    170    72        cutoff            378.6761      377.6039     2477    0.28%
Elapsed time = 745.22 sec. (832430.88 ticks, tree = 0.02 MB, solutions = 3)
    172    75      378.1585     9      378.6761      377.6039     2515    0.28%
    173    76      378.6187     8      378.6761      377.6039     2530    0.28%
    174    77      378.4306     8      378.6761      377.6039     2542    0.28%
    175    78      378.2112    10      378.6761      377.6039     2558    0.28%
    177    79      378.2731    10      378.6761      377.6039     2572    0.28%
    179    75        cutoff            378.6761      377.6039     2598    0.28%
    180    77      378.2853     8      378.6761      377.6039     2624    0.28%
    181    76        cutoff            378.6761      377.6039     2641    0.28%
    182    80      378.5298     9      378.6761      377.6039     2668    0.28%
    184    79      378.3647    10      378.6761      377.6039     2685    0.28%
Elapsed time = 813.34 sec. (909485.97 ticks, tree = 0.02 MB, solutions = 3)
    187    78      378.5270    10      378.6761      377.6039     2730    0.28%
    188    77        cutoff            378.6761      377.6039     2741    0.28%
    189    76        cutoff            378.6761      377.6039     2756    0.28%
    190    77        cutoff            378.6761      377.6039     2770    0.28%
    191    79        cutoff            378.6761      377.6039     2799    0.28%
    195    82        cutoff            378.6761      377.6039     2846    0.28%
    197    82      378.3279    10      378.6761      377.6039     2871    0.28%
    198    79        cutoff            378.6761      377.6039     2884    0.28%
    199    78        cutoff            378.6761      377.6039     2899    0.28%
    202    81      378.6572     5      378.6761      377.6039     2916    0.28%
Elapsed time = 894.38 sec. (993499.39 ticks, tree = 0.02 MB, solutions = 3)
    203    78        cutoff            378.6761      377.6039     2956    0.28%
    205    80      378.5419     9      378.6761      377.6039     2984    0.28%
    206    79      377.7239    12      378.6761      377.7239     2997    0.25%
    207    76        cutoff            378.6761      377.7239     3012    0.25%
    210    74        cutoff            378.6761      377.7239     3040    0.25%
    211    77      378.6413     9      378.6761      377.7239     3082    0.25%
    213    76        cutoff            378.6761      377.7239     3098    0.25%
    214    79      378.0935    11      378.6761      377.7239     3110    0.25%
    215    76        cutoff            378.6761      377.7239     3123    0.25%
    219    79      378.5721     9      378.6761      377.7239     3194    0.25%
Elapsed time = 969.86 sec. (1088057.68 ticks, tree = 0.02 MB, solutions = 3)
    221    76        cutoff            378.6761      377.7239     3209    0.25%
    222    79      378.2185    10      378.6761      377.7239     3223    0.25%
    223    78      378.3827    10      378.6761      377.7239     3233    0.25%
    226    79      378.3798    10      378.6761      377.7239     3276    0.25%
    227    77        cutoff            378.6761      377.7239     3304    0.25%
    229    78      378.5375     9      378.6761      377.7239     3318    0.25%
    230    79      378.3700     9      378.6761      377.7239     3331    0.25%
    232    79        cutoff            378.6761      377.7239     3360    0.25%
    235    79        cutoff            378.6761      377.7239     3415    0.25%
    237    80        cutoff            378.6761      377.7239     3430    0.25%
Elapsed time = 1057.52 sec. (1179329.53 ticks, tree = 0.02 MB, solutions = 3)
    238    83      378.5067     8      378.6761      377.7239     3440    0.25%
    239    81        cutoff            378.6761      377.7239     3471    0.25%
    242    82        cutoff            378.6761      377.7239     3483    0.25%
    243    82        cutoff            378.6761      377.7239     3512    0.25%
    246    85      378.6030     7      378.6761      377.7239     3554    0.25%
    248    81        cutoff            378.6761      377.7239     3581    0.25%
    250    79        cutoff            378.6761      377.7239     3607    0.25%
    251    81      378.6648     8      378.6761      377.7239     3635    0.25%
    254    79        cutoff            378.6761      377.7239     3666    0.25%
    256    81      378.3627    10      378.6761      377.7239     3692    0.25%
Elapsed time = 1133.36 sec. (1271377.75 ticks, tree = 0.02 MB, solutions = 3)
    258    79      378.3450    10      378.6761      377.7239     3720    0.25%
    259    78        cutoff            378.6761      377.7239     3732    0.25%
    263    76        cutoff            378.6761      377.7239     3792    0.25%
    264    79      378.6043     9      378.6761      377.7239     3805    0.25%
    266    80      378.4042    11      378.6761      377.7239     3816    0.25%
    267    78        cutoff            378.6761      377.7239     3844    0.25%
    269    80      378.3335    11      378.6761      378.2116     3871    0.12%
    271    77        cutoff            378.6761      378.2116     3888    0.12%
    273    76        cutoff            378.6761      378.2116     3932    0.12%
    275    78      378.5523     9      378.6761      378.2116     3960    0.12%
Elapsed time = 1231.44 sec. (1381627.57 ticks, tree = 0.02 MB, solutions = 3)
    278    78        cutoff            378.6761      378.2116     3988    0.12%
    279    75        cutoff            378.6761      378.2116     4034    0.12%
    281    74        cutoff            378.6761      378.2116     4046    0.12%
    283    74        cutoff            378.6761      378.2185     4072    0.12%
    287    74      378.6412     9      378.6761      378.2519     4132    0.11%
    288    73      378.5865     9      378.6761      378.2519     4144    0.11%
    290    70      378.6544     9      378.6761      378.2519     4186    0.11%

Root node processing (before b&c):
  Real time             =    0.06 sec. (23.68 ticks)
Parallel b&c, 8 threads:
  Real time             = 1291.92 sec. (1464200.99 ticks)
  Sync time (average)   =   40.63 sec.
  Wait time (average)   =    0.00 sec.
                          ------------
Total (root+branch&cut) = 1291.98 sec. (1464224.67 ticks)

<<< solve


OBJECTIVE: 378.6761
X*: [2.1747 -0.67014 1.3746 -0.4541 0.78016 -0.2936 0.33851 -0.17435 0.010374 -0.085748
     -0.23342 -0.019922 -0.41454 0.028983 -0.54911 0.065318] Z*: [-1 0 -1 0 -1 0 -1 0 -1 0 -1 0 -1 0 -1 0]
f*:378.676050886

<<< post process


<<< done

